qbf_easy_train/easy_760_SAT.qdimacs
p cnf 24 58
a 3 15 0
e 1 2 4 5 6 7 8 9 10 11 12 13 14 16 17 18 19 20 21 22 23 24 0
3 -2 0
3 1 0
2 -1 -3 0
4 -1 0
4 3 0
1 -3 -4 0
-8 -6 0
-8 -7 0
6 7 8 0
9 -8 0
9 -7 0
8 7 -9 0
-5 -9 -10 0
5 9 -10 0
-5 9 10 0
5 -9 10 0
11 4 0
11 -10 0
-4 10 -11 0
-13 -8 0
-13 12 0
8 -12 13 0
-15 6 0
-15 -14 0
-6 14 15 0
-16 -13 0
-16 15 0
13 -15 16 0
12 1 -17 0
-12 -1 -17 0
12 -1 17 0
-12 1 17 0
-18 16 0
-18 17 0
-16 -17 18 0
19 -11 0
19 -18 0
11 18 -19 0
20 -2 0
20 -12 0
2 12 -20 0
22 21 0
22 -3 0
-21 3 -22 0
20 -22 -23 0
-20 22 -23 0
20 22 23 0
-20 -22 23 0
-19 -23 -24 0
19 23 -24 0
-19 23 24 0
19 -23 24 0
-17 -6 -8 14 -16 0
-12 4 -6 19 -11 -22 -18 0
-11 -6 3 -1 13 10 0
-5 -21 -3 -9 13 -18 -1 0
-13 -5 -3 21 22 7 0
24 0
