sat_easy_train/easy_760_SAT.dimacs
p cnf 106 352
-3 4 -5 0
3 -4 -5 0
-3 -4 5 0
3 4 5 0
2 -5 -6 0
-2 5 -6 0
2 5 6 0
-2 -5 6 0
1 6 -7 0
-1 -6 -7 0
1 -6 7 0
-1 6 7 0
9 -3 0
9 -8 0
3 8 -9 0
-9 -10 -11 0
9 10 -11 0
-9 10 11 0
9 -10 11 0
7 11 -12 0
-7 -11 -12 0
7 -11 12 0
-7 11 12 0
-15 3 0
-15 14 0
-3 -14 15 0
-16 -13 0
-16 15 0
13 -15 16 0
-2 16 -17 0
2 -16 -17 0
-2 -16 17 0
2 16 17 0
-19 18 0
-19 13 0
-18 -13 19 0
-20 -19 0
-20 14 0
19 -14 20 0
21 -15 0
21 -20 0
15 20 -21 0
22 17 0
22 21 0
-17 -21 -22 0
-24 23 0
-24 16 0
-23 -16 24 0
-25 22 0
-25 24 0
-22 -24 25 0
-26 -7 0
-26 -3 0
7 3 26 0
-8 26 -27 0
8 -26 -27 0
-8 -26 27 0
8 26 27 0
-29 14 0
-29 4 0
-14 -4 29 0
30 -15 0
30 -29 0
15 29 -30 0
15 18 -31 0
-15 -18 -31 0
15 -18 31 0
-15 18 31 0
-32 -31 0
-32 -14 0
31 14 32 0
-30 -32 -33 0
30 32 -33 0
-30 32 33 0
30 -32 33 0
-34 -28 0
-34 -33 0
28 33 34 0
37 35 0
37 36 0
-35 -36 -37 0
38 -34 0
38 37 0
34 -37 -38 0
-41 40 0
-41 6 0
-40 -6 41 0
-42 -16 0
-42 41 0
16 -41 42 0
-39 42 -43 0
39 -42 -43 0
-39 -42 43 0
39 42 43 0
44 -38 0
44 -43 0
38 43 -44 0
45 -27 0
45 44 0
27 -44 -45 0
46 36 0
46 9 0
-36 -9 -46 0
23 46 -47 0
-23 -46 -47 0
23 -46 47 0
-23 46 47 0
48 -45 0
48 -47 0
45 47 -48 0
49 25 0
49 48 0
-25 -48 -49 0
50 3 0
50 -8 0
-3 8 -50 0
-10 -50 -51 0
10 50 -51 0
-10 50 51 0
10 -50 51 0
52 -31 0
52 4 0
31 -4 -52 0
52 -32 -53 0
-52 32 -53 0
52 32 53 0
-52 -32 53 0
54 17 0
54 -23 0
-17 23 -54 0
-55 14 0
-55 15 0
-14 -15 55 0
56 54 0
56 55 0
-54 -55 -56 0
57 -53 0
57 56 0
53 -56 -57 0
58 -51 0
58 -57 0
51 57 -58 0
-15 -2 -59 0
15 2 -59 0
-15 2 59 0
15 -2 59 0
-59 -52 -60 0
59 52 -60 0
-59 52 60 0
59 -52 60 0
-61 -40 0
-61 14 0
40 -14 61 0
62 -61 0
62 -14 0
61 14 -62 0
-63 -50 0
-63 62 0
50 -62 63 0
64 -31 0
64 15 0
31 -15 -64 0
63 -64 -65 0
-63 64 -65 0
63 64 65 0
-63 -64 65 0
65 26 -66 0
-65 -26 -66 0
65 -26 66 0
-65 26 66 0
-67 -7 0
-67 66 0
7 -66 67 0
-68 -60 0
-68 -67 0
60 67 68 0
69 -58 0
69 -68 0
58 68 -69 0
49 69 -70 0
-49 -69 -70 0
49 -69 70 0
-49 69 70 0
71 12 0
71 70 0
-12 -70 -71 0
-72 -36 0
-72 29 0
36 -29 72 0
-73 64 0
-73 -46 0
-64 46 73 0
74 72 0
74 -73 0
-72 73 -74 0
62 2 -75 0
-62 -2 -75 0
62 -2 75 0
-62 2 75 0
76 32 0
76 75 0
-32 -75 -76 0
15 -7 -77 0
-15 7 -77 0
15 7 77 0
-15 -7 77 0
15 21 -78 0
-15 -21 -78 0
15 -21 78 0
-15 21 78 0
77 -78 -79 0
-77 78 -79 0
77 78 79 0
-77 -78 79 0
-80 -76 0
-80 -79 0
76 79 80 0
-81 4 -82 0
81 -4 -82 0
-81 -4 82 0
81 4 82 0
50 -21 -83 0
-50 21 -83 0
50 21 83 0
-50 -21 83 0
84 -82 0
84 -83 0
82 83 -84 0
4 -10 -85 0
-4 10 -85 0
4 10 85 0
-4 -10 85 0
-86 -82 0
-86 -64 0
82 64 86 0
-85 -86 -87 0
85 86 -87 0
-85 86 87 0
85 -86 87 0
84 -87 -88 0
-84 87 -88 0
84 87 88 0
-84 -87 88 0
-89 -80 0
-89 88 0
80 -88 89 0
-59 35 -90 0
59 -35 -90 0
-59 -35 90 0
59 35 90 0
-16 -20 -91 0
16 20 -91 0
-16 20 91 0
16 -20 91 0
92 91 0
92 20 0
-91 -20 -92 0
92 -36 -93 0
-92 36 -93 0
92 36 93 0
-92 -36 93 0
-16 -91 -94 0
16 91 -94 0
-16 91 94 0
16 -91 94 0
-95 93 0
-95 -94 0
-93 94 95 0
90 95 -96 0
-90 -95 -96 0
90 -95 96 0
-90 95 96 0
97 89 0
97 -96 0
-89 96 -97 0
-29 -20 -98 0
29 20 -98 0
-29 20 98 0
29 -20 98 0
23 -31 -99 0
-23 31 -99 0
23 31 99 0
-23 -31 99 0
-100 -14 0
-100 99 0
14 -99 100 0
101 -81 0
101 32 0
81 -32 -101 0
-102 -100 0
-102 -101 0
100 101 102 0
98 102 -103 0
-98 -102 -103 0
98 -102 103 0
-98 102 103 0
-104 -97 0
-104 103 0
97 -103 104 0
-105 74 0
-105 -104 0
-74 104 105 0
106 71 0
106 -105 0
-71 105 -106 0
11 17 0
-55 96 72 -68 71 0
-12 35 -9 -78 68 -13 0
96 -63 90 0
-35 -29 -49 -91 0
-63 50 -106 0
28 -25 35 63 78 0
86 -8 -62 52 -47 0
60 18 71 76 0
-86 -84 56 36 -41 0
-62 -23 95 -57 72 0
-46 -74 95 0
-75 -67 -26 -54 0
33 -83 -64 -92 34 -57 0
-39 -72 63 0
106 -37 67 93 0
-67 94 -71 0
-69 -94 -24 -49 -53 0
52 90 0
71 -45 -32 -81 -77 -49 0
51 0
69 -16 -71 42 4 0
-42 -60 -41 0
78 -30 -69 0
-12 79 0
-26 -44 32 -33 -14 -65 0
91 104 3 50 0
29 68 0
13 3 -53 51 11 0
81 32 -44 37 -58 0
83 -19 -72 0
29 35 -68 47 -60 0
-19 52 0
65 -84 0
-30 -86 22 88 0
36 93 103 -34 -101 -6 0
87 -104 77 -76 -82 60 0
-60 18 85 -2 87 0
52 -63 -88 -21 -39 71 0
-99 51 86 -83 -75 28 0
101 -96 -50 76 0
58 -39 13 -15 31 4 0
-65 42 76 58 71 0
-96 89 -68 99 -60 0
75 62 -61 0
-94 -20 102 -14 -3 0
106 0
